(set-logic QF_S)
(set-option :strings-exp true)
(set-option :produce-models true)
(declare-fun sigmaStar_0 () String)
(declare-fun literal_5 () String)
(assert (= literal_5 "\x3c\x70\x20\x61\x6c\x69\x67\x6e\x3d\x22\x63\x65\x6e\x74\x65\x72\x22\x3e\x3c\x61\x20\x68\x72\x65\x66\x3d\x22\x68\x65\x6c\x70\x2e\x70\x68\x70\x3f\x66\x69\x6c\x65\x3d\x69\x6e\x64\x65\x78\x2e\x68\x74\x6d\x6c\x22\x3e\x68\x65\x6c\x70\x69\x6e\x64\x65\x78\x3c\x2f\x61\x3e\x3c\x2f\x70\x3e"))
(assert (str.in.re literal_5 (re.++ (re.* re.allchar) (re.++ (str.to.re "\x5c\x3c\x53\x43\x52\x49\x50\x54") (re.* re.allchar)))))
(check-sat)
(get-model)
